NAME: gr4
TYPE: TSP
COMMENT: 4-city problem (Groetschel)
DIMENSION: 4
EDGE_WEIGHT_TYPE: EXPLICIT
EDGE_WEIGHT_FORMAT: LOWER_DIAG_ROW 
EDGE_WEIGHT_SECTION
     0   100     0    10   200     0     1    20   300     0            
EOF            
